(declare-fun var0 () String)
(assert (RegexIn var0 (RegexConcat (RegexPlus (RegexPlus (Str2Reg "AAA"))) (RegexConcat (RegexUnion (RegexStar (Str2Reg "yyy")) (RegexPlus (Str2Reg "zzz"))) (RegexConcat (RegexStar (RegexPlus (Str2Reg "xxx"))) (RegexConcat (RegexStar (RegexPlus (Str2Reg "www"))) (RegexConcat (RegexStar (RegexStar (Str2Reg "vvv"))) (RegexConcat (RegexStar (RegexPlus (Str2Reg "uuu"))) (RegexConcat (RegexStar (RegexUnion (Str2Reg "s") (Str2Reg "tt"))) (RegexConcat (RegexStar (RegexPlus (Str2Reg "rrr"))) (RegexConcat (RegexStar (RegexPlus (Str2Reg "qq"))) (RegexConcat (RegexPlus (RegexStar (Str2Reg "p"))) (RegexConcat (RegexUnion (RegexPlus (Str2Reg "n")) (RegexPlus (Str2Reg "oo"))) (RegexConcat (RegexStar (RegexPlus (Str2Reg "m"))) (RegexConcat (RegexUnion (RegexUnion (Str2Reg "ii") (Str2Reg "jjj")) (RegexUnion (Str2Reg "k") (Str2Reg "l"))) (RegexConcat (RegexUnion (RegexPlus (Str2Reg "ggg")) (RegexPlus (Str2Reg "hhh"))) (RegexConcat (RegexUnion (RegexStar (Str2Reg "d")) (RegexUnion (Str2Reg "e") (Str2Reg "f"))) (RegexConcat (RegexStar (RegexStar (Str2Reg "cc"))) (RegexConcat (RegexStar (RegexStar (Str2Reg "b"))) (RegexConcat (RegexPlus (RegexUnion (Str2Reg "9") (Str2Reg "aa"))) (RegexConcat (RegexUnion (RegexPlus (Str2Reg "7")) (RegexPlus (Str2Reg "888"))) (RegexConcat (RegexPlus (RegexPlus (Str2Reg "666"))) (RegexConcat (RegexStar (RegexUnion (Str2Reg "44") (Str2Reg "555"))) (RegexConcat (RegexUnion (RegexPlus (Str2Reg "22")) (RegexPlus (Str2Reg "333"))) (RegexUnion (RegexPlus (Str2Reg "000")) (RegexStar (Str2Reg "111")))))))))))))))))))))))))))
(check-sat)